Optimal - objective value 3628.00000000
      0 x_0_1                   1                     117
     31 x_1_15                  1                       0
     39 x_2_6                   1                      64
     66 x_3_16                  1                      67
     76 x_4_9                   1                       0
    101 x_5_17                  1                       0
    102 x_6_0                   1                      62
    128 x_7_10                  1                       0
    146 x_8_11                  1                       0
    164 x_9_12                  1                       0
    172 x_10_2                  1                       0
    199 x_11_13                 1                       0
    207 x_12_3                  1                     548
    228 x_13_7                  1                       0
    243 x_14_5                  1                       0
    269 x_15_14                 1                    -103
    280 x_16_8                  1                       0
    293 x_17_4                  1                     186
    306 u_1                     1                       0
    307 u_2                    16                       0
    308 u_3                     9                       0
    309 u_4                     6                       0
    310 u_5                     4                       0
    311 u_6                    17                       0
    312 u_7                    14                       0
    313 u_8                    11                       0
    314 u_9                     7                       0
    315 u_10                   15                       0
    316 u_11                   12                       0
    317 u_12                    8                       0
    318 u_13                   13                       0
    319 u_14                    3                       0
    320 u_15                    2                       0
    321 u_16                   10                       0
    322 u_17                    5                       0
